This is Ipopt version 3.11.9, running with linear solver mumps.
NOTE: Other linear solvers might be more efficient (see Ipopt documentation).

Number of nonzeros in equality constraint Jacobian...:    12663
Number of nonzeros in inequality constraint Jacobian.:    24120
Number of nonzeros in Lagrangian Hessian.............:        0

Total number of variables............................:      603
                     variables with only lower bounds:        0
                variables with lower and upper bounds:        0
                     variables with only upper bounds:        0
Total number of equality constraints.................:       21
Total number of inequality constraints...............:       40
        inequality constraints with only lower bounds:        0
   inequality constraints with lower and upper bounds:       40
        inequality constraints with only upper bounds:        0

iter    objective    inf_pr   inf_du lg(mu)  ||d||  lg(rg) alpha_du alpha_pr  ls
   0  3.9945393e+00 8.33e-17 3.20e-01   0.0 0.00e+00    -  0.00e+00 0.00e+00   0
   1  3.0713404e+00 1.18e-16 1.32e-01  -3.2 1.28e-01    -  9.98e-01 1.00e+00f  1
   2  2.8505274e+00 1.19e-02 3.27e-01  -3.3 1.42e-01    -  9.97e-01 9.16e-01h  1
   3  2.5282918e+00 1.52e-03 5.13e-02  -4.1 5.54e-02    -  1.00e+00 1.00e+00h  1
   4  2.3810401e+00 1.18e-03 4.03e-02  -4.4 3.31e-02    -  1.00e+00 1.00e+00h  1
   5  2.1897468e+00 4.41e-03 7.89e-02  -4.1 1.08e-01    -  1.00e+00 4.05e-01h  1
   6  2.0271023e+00 6.22e-03 3.79e-01  -3.2 1.10e-01    -  1.00e+00 3.65e-01h  1
   7  1.8322668e+00 7.53e-03 4.27e-01  -2.4 1.33e-01    -  1.00e+00 3.54e-01f  1
   8  1.5084720e+00 1.99e-02 5.96e-02  -3.3 1.05e-01    -  1.00e+00 1.00e+00h  1
   9  1.4789769e+00 9.61e-03 1.83e-01  -4.0 8.61e-02    -  1.00e+00 1.00e+00h  1
iter    objective    inf_pr   inf_du lg(mu)  ||d||  lg(rg) alpha_du alpha_pr  ls
  10  1.3250584e+00 1.11e-16 3.74e-02  -4.1 3.55e-02    -  1.00e+00 1.00e+00h  1
  11  1.2711576e+00 1.11e-16 2.38e-02  -5.0 2.39e-02    -  1.00e+00 1.00e+00h  1
  12  1.1945463e+00 5.08e-03 2.28e-02  -5.0 7.65e-02    -  1.00e+00 9.48e-01h  1
  13  1.1570075e+00 1.20e-04 1.99e-02  -4.6 2.58e-02    -  1.00e+00 9.72e-01h  1
  14  1.1141625e+00 1.29e-05 4.65e-02  -4.1 5.31e-02    -  1.00e+00 5.97e-01h  1
  15  1.0618174e+00 1.17e-03 1.66e-02  -4.1 6.10e-02    -  9.97e-01 1.00e+00h  1
  16  1.0387443e+00 2.41e-04 1.44e-02  -5.2 3.52e-02    -  1.00e+00 1.00e+00h  1
  17  1.0100575e+00 7.58e-04 1.38e-02  -4.8 4.77e-02    -  1.00e+00 9.89e-01h  1
  18  9.8569764e-01 7.98e-04 9.55e-03  -4.9 3.61e-02    -  1.00e+00 9.48e-01h  1
  19  9.6547669e-01 5.09e-04 2.24e-02  -4.7 3.17e-02    -  1.00e+00 6.80e-01h  1
iter    objective    inf_pr   inf_du lg(mu)  ||d||  lg(rg) alpha_du alpha_pr  ls
  20  9.3953909e-01 7.54e-04 1.33e-02  -4.9 3.61e-02    -  1.00e+00 1.00e+00h  1
  21  9.2471228e-01 4.21e-04 1.19e-02  -6.3 2.18e-02    -  1.00e+00 1.00e+00h  1
  22  9.1845334e-01 3.47e-04 3.21e-02  -5.7 2.78e-02    -  1.00e+00 2.70e-01h  1
  23  8.9693975e-01 4.86e-04 1.10e-02  -4.7 2.95e-02    -  1.00e+00 9.69e-01h  1
  24  8.8726559e-01 1.53e-04 9.45e-03  -6.2 1.80e-02    -  1.00e+00 1.00e+00h  1
  25  8.7325899e-01 1.25e-03 7.53e-03  -6.5 2.88e-02    -  1.00e+00 1.00e+00h  1
  26  8.6703644e-01 9.66e-04 1.52e-02  -6.7 2.37e-02    -  1.00e+00 4.44e-01h  1
  27  8.6373075e-01 8.64e-04 4.03e-02  -6.3 3.23e-02    -  1.00e+00 1.48e-01h  1
  28  8.4515426e-01 3.46e-03 8.04e-03  -5.9 4.13e-02    -  1.00e+00 1.00e+00h  1
  29  8.4070553e-01 1.29e-03 7.17e-03  -5.7 1.00e-02    -  1.00e+00 1.00e+00h  1
iter    objective    inf_pr   inf_du lg(mu)  ||d||  lg(rg) alpha_du alpha_pr  ls
  30  8.3849222e-01 1.63e-04 6.20e-01  -3.8 9.92e-02    -  9.41e-01 1.06e-01h  1
  31  8.3178294e-01 2.08e-04 9.88e-02  -5.9 1.97e-02    -  8.87e-01 1.00e+00h  1
  32  8.2387885e-01 1.60e-03 2.99e-02  -4.8 3.41e-02    -  9.93e-01 8.15e-01h  1
  33  8.1952152e-01 1.67e-16 1.22e-02  -4.8 1.32e-02    -  1.00e+00 1.00e+00h  1
  34  8.1399070e-01 9.02e-17 1.11e-02  -4.5 1.96e-02    -  1.00e+00 1.00e+00h  1
  35  8.0917993e-01 1.39e-16 1.96e-02  -5.1 1.73e-02    -  1.00e+00 1.00e+00h  1
  36  8.0288248e-01 2.56e-04 5.60e-03  -6.1 2.55e-02    -  1.00e+00 1.00e+00h  1
  37  7.9920989e-01 1.85e-03 5.15e-03  -5.1 1.39e-02    -  1.00e+00 9.99e-01h  1
  38  7.9494450e-01 6.65e-04 5.56e-03  -5.3 8.84e-03    -  1.00e+00 1.00e+00h  1
  39  7.9093065e-01 6.00e-04 5.71e-03  -5.6 1.66e-02    -  1.00e+00 1.00e+00h  1
iter    objective    inf_pr   inf_du lg(mu)  ||d||  lg(rg) alpha_du alpha_pr  ls
  40  7.8777920e-01 1.77e-04 4.95e-03  -4.9 9.41e-03    -  1.00e+00 1.00e+00h  1
  41  7.8363423e-01 1.67e-16 4.32e-03  -5.0 1.99e-02    -  1.00e+00 1.00e+00h  1
  42  7.7767386e-01 9.15e-04 4.38e-03  -5.9 3.98e-02    -  1.00e+00 1.00e+00h  1
  43  7.7518318e-01 3.07e-04 4.21e-03  -5.6 1.91e-02    -  1.00e+00 7.98e-01h  1
  44  7.7529474e-01 1.49e-04 1.40e-01  -4.8 2.29e-02    -  1.00e+00 4.15e-01h  1
  45  7.7246785e-01 1.27e-04 4.03e-03  -5.7 1.51e-02    -  1.00e+00 1.00e+00h  1
  46  7.6951867e-01 7.03e-04 2.86e-03  -6.1 2.12e-02    -  1.00e+00 1.00e+00h  1

Number of Iterations....: 46

                                   (scaled)                 (unscaled)
Objective...............:   7.6951867219221787e-02    7.6951867219221781e-01
Dual infeasibility......:   2.8594514741834814e-03    2.8594514741834814e-02
Constraint violation....:   7.0319028924514804e-04    7.0319028924514804e-04
Complementarity.........:   3.3914637767677616e-06    3.3914637767677612e-05
Overall NLP error.......:   2.8594514741834814e-03    2.8594514741834814e-02


Number of objective function evaluations             = 47
Number of objective gradient evaluations             = 47
Number of equality constraint evaluations            = 47
Number of inequality constraint evaluations          = 47
Number of equality constraint Jacobian evaluations   = 47
Number of inequality constraint Jacobian evaluations = 47
Number of Lagrangian Hessian evaluations             = 0
Total CPU secs in IPOPT (w/o function evaluations)   =      1.640
Total CPU secs in NLP function evaluations           =    133.590

EXIT: Optimal Solution Found.
